NAME: instance_350
TYPE: TSP
DIMENSION: 20
EDGE_WEIGHT_TYPE: EUC_2D
NODE_COORD_SECTION
0 73.70 75.55
1 99.19 27.24
2 52.60 39.93
3 66.86 4.93
4 47.11 16.51
5 10.25 66.59
6 74.24 39.57
7 88.86 71.19
8 4.29 90.08
9 88.60 80.43
10 61.20 98.12
11 39.12 97.29
12 51.82 16.18
13 64.58 34.95
14 76.92 24.15
15 88.02 39.58
16 37.11 28.15
17 25.75 94.26
18 49.28 45.61
19 13.92 2.22
EOF
